p cnf 14 26
14 -13 -8 0
-14 12 9 0
-14 -10 9 0
-14 -9 7 0
-14 5 -3 0
-14 -5 2 0
13 -11 5 0
-13 -7 5 0
13 -6 -3 0
-12 -10 -8 0
-12 7 6 0
-12 -6 -2 0
11 -10 -7 0
-11 -9 -7 0
11 -9 6 0
11 9 5 0
-11 -9 2 0
-11 -8 5 0
10 -9 3 0
10 -4 2 0
-9 -4 -2 0
-8 -7 -5 0
-8 -7 -1 0
8 -6 3 0
-8 -5 -4 0
7 5 -1 0
